0
1640
1640
1634
1581
1581
1581
1581
1581
1496
1496
1496
1496
1496
1496
1461
1461
1461
1461
1461
1461
1461
1461
1461
1461
1461
1461
1461
1461
1461
1461
1461
1461
1461
1461
1461
1461
1461
1461
1461
1461
1461
